c
c Renamed file of cm82a.cnf 
c Variables are renamed according to left2right.ord 
c
c Date: Thu Apr 29 14:49:14 PDT 2004 by (jinbo)
c Host: Linux solution 2.4.18-4smp #1 SMP Thu May 2 18:32:34 EDT 2002 i686 unknown
c
c Copyright (c) 2001 Fadi A. Aloul.
c
p cnf 25 62
-5 -3 0
4 -3 0
3 5 -4 0
-3 1 0
5 -2 0
-4 -2 0
2 -5 4 0
-2 1 0
-1 3 2 0
16 -15 0
17 -15 0
15 -16 -17 0
-15 13 0
-16 -14 0
-17 -14 0
14 16 17 0
-14 13 0
-13 15 14 0
-16 -23 0
21 -23 0
23 16 -21 0
-23 25 0
-16 -22 0
20 -22 0
22 16 -20 0
-22 25 0
21 -24 0
20 -24 0
24 -21 -20 0
-24 25 0
-25 23 22 24 0
-5 -10 0
-8 -10 0
10 5 8 0
-10 16 0
-5 -11 0
-9 -11 0
11 5 9 0
-11 16 0
-8 -12 0
-9 -12 0
12 8 9 0
-12 16 0
-16 10 11 12 0
-21 -19 0
20 -19 0
19 21 -20 0
-19 17 0
21 -18 0
-20 -18 0
18 -21 20 0
-18 17 0
-17 19 18 0
-8 -7 0
9 -7 0
7 8 -9 0
-7 4 0
8 -6 0
-9 -6 0
6 -8 9 0
-6 4 0
-4 7 6 0
